2153783543089623 -1 0
h -2 -1 0
5309726522641604 2 0
1143084256594785 -3 0
1 1 3 0
2283291215810482508 1 -4 0
h -5 0
561976485612223 -1 0
1480436609332497 5 0
5015988672546603428 4 -1 0
1955585626444877423 -6 0
